interdiction/MCDM/NO_CORR/GEN_FROM_60/18_ITEMS_1000_GEN/K5018W09.KNP.mps
NAME          BLANK   
ROWS
 N  OBJROW
 L  R0000000
COLUMNS
    C0000000  OBJROW     -387.         R0000000  963.        
    C0000001  OBJROW     -996.         R0000000  553.        
    C0000002  OBJROW     -376.         R0000000  354.        
    C0000003  OBJROW     -737.         R0000000  433.        
    C0000004  OBJROW     -407.         R0000000  119.        
    C0000005  OBJROW     -964.         R0000000  979.        
    C0000006  OBJROW     -535.         R0000000  504.        
    C0000007  OBJROW     -244.         R0000000  369.        
    C0000008  OBJROW     -278.         R0000000  839.        
    C0000009  OBJROW     -152.         R0000000  148.        
    C0000010  OBJROW     -904.         R0000000  427.        
    C0000011  OBJROW     -761.         R0000000  979.        
    C0000012  OBJROW     -402.         R0000000  77.         
    C0000013  OBJROW     -667.         R0000000  511.        
    C0000014  OBJROW     -625.         R0000000  120.        
    C0000015  OBJROW     -33.          R0000000  503.        
    C0000016  OBJROW     -432.         R0000000  492.        
    C0000017  OBJROW     -785.         R0000000  431.        
RHS
    RHS       R0000000  14716.      
BOUNDS
 BV BOUND     C0000000  1.          
 BV BOUND     C0000001  1.          
 BV BOUND     C0000002  1.          
 BV BOUND     C0000003  1.          
 BV BOUND     C0000004  1.          
 BV BOUND     C0000005  1.          
 BV BOUND     C0000006  1.          
 BV BOUND     C0000007  1.          
 BV BOUND     C0000008  1.          
 BV BOUND     C0000009  1.          
 BV BOUND     C0000010  1.          
 BV BOUND     C0000011  1.          
 BV BOUND     C0000012  1.          
 BV BOUND     C0000013  1.          
 BV BOUND     C0000014  1.          
 BV BOUND     C0000015  1.          
 BV BOUND     C0000016  1.          
 BV BOUND     C0000017  1.          
ENDATA
