data/MCDM/NO_CORR/GEN_FROM_60/18_ITEMS_1000_GEN/K5018W09.KNP.txt
N 18
M 19
LC 18
LC 19
LC 20
LC 21
LC 22
LC 23
LC 24
LC 25
LC 26
LC 27
LC 28
LC 29
LC 30
LC 31
LC 32
LC 33
LC 34
LC 35
LR 1
LR 2
LR 3
LR 4
LR 5
LR 6
LR 7
LR 8
LR 9
LR 10
LR 11
LR 12
LR 13
LR 14
LR 15
LR 16
LR 17
LR 18
LR 19
LO -387
LO -996
LO -376
LO -737
LO -407
LO -964
LO -535
LO -244
LO -278
LO -152
LO -904
LO -761
LO -402
LO -667
LO -625
LO -33
LO -432
LO -785
OS 1
IC 185
IC 298
IC 314
IC 580
IC 602
IC 553
IC 18
IC 553
IC 961
IC 711
IC 158
IC 316
IC 628
IC 955
IC 276
IC 53
IC 227
IC 215
IB 3802
